# Solution for model GasLib-40
# Objective value = 3.0723449044891968e+01
loadshed[innode_1] 0
loadshed[innode_2] 0
loadshed[innode_3] 0
loadshed[innode_4] 0
loadshed[innode_5] 0
loadshed[innode_6] 0
loadshed[innode_7] 0
loadshed[innode_8] 0
loadshed[source_1] -1.0547793877934453e-01
loadshed[source_2] 5.4979640734436064e-02
loadshed[source_3] 2.4483946485638797e-01
loadshed[sink_1] 0
loadshed[sink_2] 0
loadshed[sink_3] 0
loadshed[sink_4] 0
loadshed[sink_5] 0
loadshed[sink_6] 0
loadshed[sink_7] 0
loadshed[sink_8] 0
loadshed[sink_9] 0
loadshed[sink_10] 0
loadshed[sink_11] 0
loadshed[sink_12] 1
loadshed[sink_13] 0
loadshed[sink_14] 0
loadshed[sink_15] 0
loadshed[sink_16] 0
loadshed[sink_17] 0
loadshed[sink_18] 0
loadshed[sink_19] 0
loadshed[sink_20] 7.0552702352237684e-01
loadshed[sink_21] 1.7310425565573065e-01
loadshed[sink_22] 0
loadshed[sink_23] 0
loadshed[sink_24] 0
loadshed[sink_25] 0
loadshed[sink_26] 0
loadshed[sink_27] 0
loadshed[sink_28] 0
loadshed[sink_29] 0
flow[source_1,sink_3] 1.7476531441883179e+02
flow[innode_1,sink_16] 1.6354166666666970e+01
flow[innode_6,sink_13] -4.9043721010014139e+00
flow[sink_13,sink_14] -2.1258538767668082e+01
flow[sink_14,sink_10] -3.7612705434334750e+01
flow[sink_25,sink_26] 2.1458905095511068e+02
flow[sink_26,sink_9] 1.9823488428844396e+02
flow[sink_9,sink_18] 1.8188071762177731e+02
flow[sink_26,sink_4] 0
flow[sink_4,sink_20] 0
flow[sink_18,sink_6] 1.6552655095511065e+02
flow[sink_25,innode_8] -1.4205698108549544e+02
flow[sink_6,sink_7] 116.46405095511
flow[sink_6,sink_22] 3.2708333333333641e+01
flow[sink_7,sink_24] 2.9877357485630228e+01
flow[sink_22,sink_1] 1.6354166666666970e+01
flow[sink_24,sink_21] 1.3523190818963572e+01
flow[sink_21,sink_12] 0
flow[sink_7,sink_5] 7.0232526802813751e+01
flow[sink_5,sink_17] 5.3878360136147087e+01
flow[sink_17,sink_4] 16.3541666666693
flow[sink_17,sink_8] 2.1170026802811130e+01
flow[sink_3,sink_23] 16.3541666666697
flow[sink_8,sink_20] 4.8158601361444626e+00
flow[sink_25,sink_20] 0
flow[sink_25,sink_15] -8.3981864435280443e+01
flow[sink_15,sink_29] -5.6716364704726864e+01
flow[sink_29,sink_28] 1.6354166666667879e+01
flow[sink_29,sink_2] 5.9973833063886929e+01
flow[sink_2,sink_15] 4.3619666397220257e+01
flow[sink_29,innode_7] -1.4939853110194835e+02
flow[innode_4,sink_19] 46.285890062706
flow[sink_19,innode_3] 4.2297134396114949e+01
flow[innode_4,innode_5] 7.3097648704962936e+01
flow[sink_27,innode_5] -7.3097648704962936e+01
flow[sink_27,sink_19] 5.6743482038296271e+01
flow[sink_10,sink_11] 3.2708333333333641e+01
flow[sink_10,innode_2] -4.4378071038220163e+01
flow[sink_10,innode_3] -4.2297134396114949e+01
flow[innode_6,sink_25] 4.9043721010014139e+00
flow[sink_11,innode_1] 1.6354166666666970e+01
flow[sink_19,innode_2] 4.4378071038220163e+01
flow[source_3,innode_4] 1.1938353876766894e+02
flow[source_2,innode_7] 1.4939853110194835e+02
flow[sink_3,innode_8] 1.4205698108549544e+02
pressure[innode_1] 7.6640825007029662e+01
pressure[innode_2] 7.9138090656439715e+01
pressure[innode_3] 79.0444284419504
pressure[innode_4] 81.01325
pressure[innode_5] 8.0962969582769773e+01
pressure[innode_6] 7.4948417211571112e+01
pressure[innode_7] 81.01325
pressure[innode_8] 8.0429076316667832e+01
pressure[source_1] 81.01325
pressure[source_2] 81.01325
pressure[source_3] 81.01325
pressure[sink_1] 3.4868051099624928e+01
pressure[sink_2] 7.5498219685011932e+01
pressure[sink_3] 8.0429076316667832e+01
pressure[sink_4] 1.5226455105876964e+00
pressure[sink_5] 6.1611962205603490e+00
pressure[sink_6] 36.9691287100123
pressure[sink_7] 3.5370354898679736e+01
pressure[sink_8] 1.3488477247428761e+00
pressure[sink_9] 4.7970166919147786e+01
pressure[sink_10] 7.6792526314633207e+01
pressure[sink_11] 7.6640825007029662e+01
pressure[sink_12] 1.01325
pressure[sink_13] 7.4975454195367220e+01
pressure[sink_14] 7.5013498161319063e+01
pressure[sink_15] 7.5355811087844629e+01
pressure[sink_16] 7.5619175172211982e+01
pressure[sink_17] 2.1476478343901459e+00
pressure[sink_18] 41.389180457823
pressure[sink_19] 7.9138090656439715e+01
pressure[sink_20] 1.01325
pressure[sink_21] 1.01325
pressure[sink_22] 3.5931820241979935e+01
pressure[sink_23] 8.0264358305008045e+01
pressure[sink_24] 1.1630067737772740e+00
pressure[sink_25] 7.4948417211571112e+01
pressure[sink_26] 5.9835036373963689e+01
pressure[sink_27] 8.0356394168450123e+01
pressure[sink_28] 7.6722142287478889e+01
pressure[sink_29] 7.7017424561096064e+01
interdiction[source_1,sink_3] 0
interdiction[innode_1,sink_16] 0
interdiction[innode_6,sink_13] 0
interdiction[sink_13,sink_14] 0
interdiction[sink_14,sink_10] 0
interdiction[sink_25,sink_26] 0
interdiction[sink_26,sink_9] 0
interdiction[sink_9,sink_18] 0
interdiction[sink_26,sink_4] 1
interdiction[sink_4,sink_20] 1
interdiction[sink_18,sink_6] 0
interdiction[sink_25,innode_8] 0
interdiction[sink_6,sink_7] 0
interdiction[sink_6,sink_22] 0
interdiction[sink_7,sink_24] 0
interdiction[sink_22,sink_1] 0
interdiction[sink_24,sink_21] 0
interdiction[sink_21,sink_12] 0
interdiction[sink_7,sink_5] 0
interdiction[sink_5,sink_17] 0
interdiction[sink_17,sink_4] 0
interdiction[sink_17,sink_8] 0
interdiction[sink_3,sink_23] 0
interdiction[sink_8,sink_20] 0
interdiction[sink_25,sink_20] 1
interdiction[sink_25,sink_15] 0
interdiction[sink_15,sink_29] 0
interdiction[sink_29,sink_28] 0
interdiction[sink_29,sink_2] 0
interdiction[sink_2,sink_15] 0
interdiction[sink_29,innode_7] 0
interdiction[innode_4,sink_19] 0
interdiction[sink_19,innode_3] 0
interdiction[innode_4,innode_5] 0
interdiction[sink_27,innode_5] 0
interdiction[sink_27,sink_19] 0
interdiction[sink_10,sink_11] 0
interdiction[sink_10,innode_2] 0
interdiction[sink_10,innode_3] 0
interdiction[innode_6,sink_25] 0
interdiction[sink_11,innode_1] 0
interdiction[sink_19,innode_2] 0
interdiction[source_3,innode_4] 0
interdiction[source_2,innode_7] 0
interdiction[sink_3,innode_8] 0
WCcheckFlow[source_1,sink_3] 39
WCcheckFlow[innode_1,sink_16] 1
WCcheckFlow[innode_6,sink_13] 13
WCcheckFlow[sink_13,sink_14] 12
WCcheckFlow[sink_14,sink_10] 11
WCcheckFlow[sink_25,sink_26] 15
WCcheckFlow[sink_26,sink_9] 14
WCcheckFlow[sink_9,sink_18] 13
WCcheckFlow[sink_26,sink_4] 0
WCcheckFlow[sink_4,sink_20] 0
WCcheckFlow[sink_18,sink_6] 12
WCcheckFlow[sink_25,innode_8] -36
WCcheckFlow[sink_6,sink_7] 9
WCcheckFlow[sink_6,sink_22] 2
WCcheckFlow[sink_7,sink_24] 3
WCcheckFlow[sink_22,sink_1] 1
WCcheckFlow[sink_24,sink_21] 2
WCcheckFlow[sink_21,sink_12] 1
WCcheckFlow[sink_7,sink_5] 5
WCcheckFlow[sink_5,sink_17] 4
WCcheckFlow[sink_17,sink_4] 1
WCcheckFlow[sink_17,sink_8] 2
WCcheckFlow[sink_3,sink_23] 1
WCcheckFlow[sink_8,sink_20] 1
WCcheckFlow[sink_25,sink_20] 0
WCcheckFlow[sink_25,sink_15] 6
WCcheckFlow[sink_15,sink_29] 5
WCcheckFlow[sink_29,sink_28] 1
WCcheckFlow[sink_29,sink_2] 1
WCcheckFlow[sink_2,sink_15] 0
WCcheckFlow[sink_29,innode_7] 2
WCcheckFlow[innode_4,sink_19] -4
WCcheckFlow[sink_19,innode_3] -5
WCcheckFlow[innode_4,innode_5] 2
WCcheckFlow[sink_27,innode_5] -1
WCcheckFlow[sink_27,sink_19] 0
WCcheckFlow[sink_10,sink_11] 3
WCcheckFlow[sink_10,innode_2] 1
WCcheckFlow[sink_10,innode_3] 6
WCcheckFlow[innode_6,sink_25] -14
WCcheckFlow[sink_11,innode_1] 2
WCcheckFlow[sink_19,innode_2] 0
WCcheckFlow[source_3,innode_4] -1
WCcheckFlow[source_2,innode_7] -1
WCcheckFlow[sink_3,innode_8] 37
